17	4
40	29	22	29	
0	0	0	0	0	3	2	3	4	
6	5	0	0	0	2	5	8	
5	5	2	8	10	3	9	11	17	
3	8	0	0	0	2	9	12	
3	3	0	5	0	1	6	
200	7	6	0	0	2	7	17	
150	1	0	1	0	1	17	
200	0	7	0	9	3	14	15	17	
200	0	0	9	0	3	10	13	17	
150	0	8	2	0	1	17	
250	9	0	0	0	2	12	17	
200	0	0	2	7	1	17	
8	5	2	2	0	2	16	17	
6	0	0	0	5	2	17	17	
5	10	7	2	4	2	17	17	
2	8	3	0	1	2	17	17	
0	0	0	0	0	0	
